n = 8;
color = {
  '🟥', % red
  '🟦', % blue
  '🟩', % green
  '🟨', % yellow
  '🟪', % purple
  '⬛', % grey
  '🟫', % brown
  '🟧', % orange
};
board =
[|'🟦','🟦','🟦','🟧','🟧','🟧','🟧','🟧',
 |'🟪','🟪','🟦','🟦','🟩','🟧','⬛','⬛',
 |'🟪','🟥','🟩','🟩','🟩','🟫','⬛','⬛',
 |'🟥','🟥','🟥','🟩','🟫','🟫','🟫','⬛',
 |'🟥','🟥','🟥','🟨','🟨','🟫','⬛','⬛',
 |'🟥','🟥','🟨','🟨','🟨','🟨','⬛','⬛',
 |'🟥','🟨','🟨','🟨','🟨','🟨','🟨','⬛',
 |'🟨','🟨','🟨','🟨','🟨','🟨','🟨','🟨',
 |];
